(set-info :smt-lib-version 2.6)
(set-logic QF_LIA)
(set-info :source |
Alberto Griggio

|)
(set-info :category "crafted")
(set-info :status unsat)
(declare-fun v0 () Int)
(declare-fun v1 () Int)
(declare-fun v2 () Int)
(declare-fun v3 () Int)
(declare-fun v4 () Int)
(declare-fun v5 () Int)
(declare-fun v6 () Int)
(declare-fun v7 () Int)
(declare-fun o_0 () Int)
(declare-fun s_2 () Int)
(declare-fun o_1 () Int)
(declare-fun s_3 () Int)
(declare-fun s_4 () Int)
(declare-fun o_2 () Int)
(declare-fun s_5 () Int)
(declare-fun s_6 () Int)
(declare-fun o_3 () Int)
(declare-fun o_4 () Int)
(declare-fun o_5 () Int)
(declare-fun o_6 () Int)
(declare-fun o_7 () Int)
(declare-fun o_8 () Int)
(declare-fun s_9 () Int)
(declare-fun o_9 () Int)
(declare-fun s_10 () Int)
(declare-fun o_10 () Int)
(declare-fun s_11 () Int)
(declare-fun o_11 () Int)
(declare-fun s_12 () Int)
(declare-fun o_12 () Int)
(declare-fun s_13 () Int)
(declare-fun o_13 () Int)
(declare-fun A_itev1 () Int)
(declare-fun A_itev2 () Int)
(declare-fun A_itev3 () Int)
(declare-fun A_itev4 () Int)
(declare-fun A_itev5 () Int)
(declare-fun A_itev6 () Int)
(declare-fun A_itev7 () Int)
(declare-fun A_itev8 () Int)
(declare-fun A_itev9 () Int)
(declare-fun A_itev10 () Int)
(assert (let ((?v_98 (+ (* v6 64) (* v7 128))) (?v_97 (* A_itev4 32)) (?v_35 (* v1 2)) (?v_21 (* v2 4)) (?v_55 (* v3 8)) (?v_94 (* v4 16)) (?v_93 (* v5 32)) (?v_90 (* A_itev4 16)) (?v_85 (* A_itev4 8)) (?v_80 (* A_itev4 4)) (?v_75 (* A_itev4 2)) (?v_61 (* v5 2)) (?v_52 (- s_6)) (?v_4 (* v7 2))) (let ((?v_54 (+ (+ (+ v6 ?v_4) ?v_52) (- s_5)))) (let ((?v_53 (+ (- o_3) ?v_54)) (?v_51 (+ ?v_52 ?v_4)) (?v_1 (<= 64 v7))) (let ((?v_41 (not ?v_1)) (?v_18 (<= 64 v2))) (let ((?v_40 (not ?v_18)) (?v_32 (<= 64 v1))) (let ((?v_39 (not ?v_32)) (?v_38 (= A_itev10 A_itev9)) (?v_37 (= (+ (- A_itev10) ?v_35) 0)) (?v_36 (<= 32 v1)) (?v_31 (+ (- A_itev9) ?v_35))) (let ((?v_34 (= ?v_31 64)) (?v_33 (= ?v_31 128)) (?v_30 (= A_itev8 A_itev7)) (?v_29 (= (+ (- A_itev8) ?v_21) 0)) (?v_28 (<= 16 v2)) (?v_27 (= A_itev7 A_itev6)) (?v_26 (= (+ (- A_itev7) ?v_21) 64)) (?v_25 (<= 32 v2)) (?v_24 (= A_itev6 A_itev5)) (?v_23 (= (+ (- A_itev6) ?v_21) 128)) (?v_22 (<= 48 v2)) (?v_17 (+ (- A_itev5) ?v_21))) (let ((?v_20 (= ?v_17 192)) (?v_19 (= ?v_17 256)) (?v_16 (= A_itev4 A_itev3)) (?v_7 (= A_itev2 A_itev1)) (?v_6 (= (+ (- A_itev2) ?v_4) 0)) (?v_5 (<= 32 v7)) (?v_0 (+ (- A_itev1) ?v_4))) (let ((?v_3 (= ?v_0 64)) (?v_2 (= ?v_0 128)) (?v_13 (+ (+ (* o_7 (- 128)) (* v6 2)) (* A_itev2 2)))) (let ((?v_8 (+ (- A_itev3) ?v_13))) (let ((?v_11 (= ?v_8 64)) (?v_12 (+ (+ (* o_7 (- 64)) v6) A_itev2))) (let ((?v_9 (<= 64 ?v_12)) (?v_10 (= ?v_8 128))) (let ((?v_69 (not ?v_9)) (?v_14 (<= 32 ?v_12)) (?v_15 (= (+ ?v_13 (- A_itev4)) 0)) (?v_58 (* o_0 (- 64)))) (let ((?v_42 (+ (+ ?v_58 v0) A_itev10)) (?v_43 (+ (* s_2 (- 8)) v3)) (?v_56 (* s_2 (- 64)))) (let ((?v_45 (+ ?v_56 ?v_55)) (?v_57 (* o_1 (- 64)))) (let ((?v_44 (+ (+ ?v_45 ?v_57) A_itev8)) (?v_48 (* s_3 (- 4)))) (let ((?v_46 (+ ?v_48 v4)) (?v_47 (+ (* s_4 (- 2)) v5)) (?v_62 (* s_4 (- 4)))) (let ((?v_50 (+ (+ (+ ?v_61 v4) ?v_62) ?v_48)) (?v_63 (* o_2 (- 4)))) (let ((?v_49 (+ ?v_50 ?v_63)) (?v_60 (+ (+ (+ (+ ?v_55 v0) ?v_56) ?v_57) ?v_58)) (?v_66 (* o_4 (- 64)))) (let ((?v_59 (+ (+ (+ ?v_60 ?v_66) A_itev8) A_itev10)) (?v_65 (+ (+ (+ (+ (+ (+ (+ (+ (+ (* v6 4) (* v7 8)) ?v_61) v4) (* s_6 (- 4))) (* s_5 (- 4))) (* o_3 (- 4))) ?v_62) ?v_48) ?v_63))) (let ((?v_64 (+ (* o_5 (- 4)) ?v_65)) (?v_99 (* s_6 (- 64))) (?v_100 (* s_5 (- 64))) (?v_101 (* o_3 (- 64))) (?v_102 (* s_4 (- 64))) (?v_103 (* s_3 (- 64))) (?v_104 (* o_2 (- 64))) (?v_105 (* o_5 (- 64)))) (let ((?v_68 (+ (+ (+ (+ (+ (+ (+ (+ (+ (+ (+ (+ (+ (+ (+ ?v_98 ?v_93) ?v_94) ?v_55) v0) ?v_99) ?v_100) ?v_101) ?v_102) ?v_103) ?v_104) ?v_105) ?v_56) ?v_57) ?v_58) ?v_66)) (?v_106 (* o_6 (- 64)))) (let ((?v_67 (+ (+ (+ ?v_68 ?v_106) A_itev8) A_itev10)) (?v_71 (+ (* o_8 (- 64)) v5))) (let ((?v_70 (+ ?v_71 A_itev4)) (?v_72 (+ (+ (* s_9 (- 32)) ?v_71) A_itev4)) (?v_74 (+ (+ (+ (* o_8 (- 128)) ?v_61) (* s_9 (- 64))) v4))) (let ((?v_76 (+ ?v_74 (* o_9 (- 64))))) (let ((?v_73 (+ ?v_76 ?v_75)) (?v_77 (+ (+ (* s_10 (- 32)) ?v_76) ?v_75)) (?v_79 (+ (+ (+ (+ (+ (+ (* o_8 (- 256)) (* v5 4)) (* s_9 (- 128))) (* v4 2)) (* o_9 (- 128))) (* s_10 (- 64))) v3))) (let ((?v_81 (+ ?v_79 (* o_10 (- 64))))) (let ((?v_78 (+ ?v_81 ?v_80)) (?v_82 (+ (+ (* s_11 (- 32)) ?v_81) ?v_80)) (?v_84 (+ (+ (+ (+ (+ (+ (+ (+ (+ (* o_8 (- 512)) (* v5 8)) (* s_9 (- 256))) (* v4 4)) (* o_9 (- 256))) (* s_10 (- 128))) (* v3 2)) (* o_10 (- 128))) (* s_11 (- 64))) v2))) (let ((?v_86 (+ ?v_84 (* o_11 (- 64))))) (let ((?v_83 (+ ?v_86 ?v_85)) (?v_87 (+ (+ (* s_12 (- 32)) ?v_86) ?v_85)) (?v_89 (+ (+ (+ (+ (+ (+ (+ (+ (+ (+ (+ (+ (* o_8 (- 1024)) (* v5 16)) (* s_9 (- 512))) (* v4 8)) (* o_9 (- 512))) (* s_10 (- 256))) (* v3 4)) (* o_10 (- 256))) (* s_11 (- 128))) (* v2 2)) (* o_11 (- 128))) (* s_12 (- 64))) v1))) (let ((?v_91 (+ ?v_89 (* o_12 (- 64))))) (let ((?v_88 (+ ?v_91 ?v_90)) (?v_92 (+ (+ (* s_13 (- 32)) ?v_91) ?v_90)) (?v_96 (+ (+ (+ (+ (+ (+ (+ (+ (+ (+ (+ (+ (+ (+ (+ (* o_8 (- 2048)) ?v_93) (* s_9 (- 1024))) ?v_94) (* o_9 (- 1024))) (* s_10 (- 512))) ?v_55) (* o_10 (- 512))) (* s_11 (- 256))) ?v_21) (* o_11 (- 256))) (* s_12 (- 128))) ?v_35) (* o_12 (- 128))) (* s_13 (- 64))) v0))) (let ((?v_95 (+ (+ (* o_13 (- 64)) ?v_96) ?v_97))) (and (and (and (and (and (and (and (and (and (and (and (and (and (and (and (and (and (and (and (and (and (and (and (and (and (and (and (and (and (and (or ?v_2 ?v_41) (or ?v_3 ?v_1)) (or ?v_2 ?v_3)) (or ?v_5 ?v_6)) (or (not ?v_5) ?v_7)) (or ?v_6 ?v_7)) (or ?v_11 ?v_9)) (or ?v_10 ?v_69)) (or ?v_10 ?v_11)) (or ?v_14 ?v_15)) (or (not ?v_14) ?v_16)) (or ?v_15 ?v_16)) (or ?v_20 ?v_18)) (or ?v_19 ?v_40)) (or ?v_19 ?v_20)) (or ?v_22 ?v_23)) (or (not ?v_22) ?v_24)) (or ?v_23 ?v_24)) (or ?v_25 ?v_26)) (or (not ?v_25) ?v_27)) (or ?v_26 ?v_27)) (or ?v_28 ?v_29)) (or (not ?v_28) ?v_30)) (or ?v_29 ?v_30)) (or ?v_34 ?v_32)) (or ?v_33 ?v_39)) (or ?v_33 ?v_34)) (or ?v_36 ?v_37)) (or (not ?v_36) ?v_38)) (or ?v_37 ?v_38)) (and (and (and (and (and (and (and (and (and (and (and (and (and (and (and (and (and (and (and (and (and (and (and (and (and (and (and (and (and (and (and (and (and (and (and (and (and (and (and (and (and (and (and (and (and (and (and (and (and (and (and (and (and (and (and (and (and (and (and (and (and (and (and (and (and (and (and (and (and (and (and (and (and (and (and (and (and (and (and (and (and (<= 0 v0) (not (<= 64 v0))) (and (<= 0 v1) ?v_39)) (and (<= 0 v2) ?v_40)) (and (<= 0 v3) (not (<= 64 v3)))) (and (<= 0 v4) (not (<= 64 v4)))) (and (<= 0 v5) (not (<= 64 v5)))) (and (<= 0 v6) (not (<= 64 v6)))) (and (<= 0 v7) ?v_41)) (and (<= 0 o_0) (<= o_0 1))) (and (<= 0 ?v_42) (not (<= 64 ?v_42)))) (= (not (<= (+ A_itev10 v0) 64)) (= o_0 1))) (and (not (<= 8 s_2)) (<= 0 s_2))) (and (<= 0 ?v_43) (not (<= 8 ?v_43)))) (= (<= 1 s_2) (not (<= v3 8)))) (and (<= 0 o_1) (<= o_1 1))) (and (<= 0 ?v_44) (not (<= 64 ?v_44)))) (= (not (<= (+ ?v_45 A_itev8) 64)) (= o_1 1))) (and (not (<= 16 s_3)) (<= 0 s_3))) (and (<= 0 ?v_46) (not (<= 4 ?v_46)))) (= (<= 1 s_3) (not (<= v4 4)))) (and (not (<= 32 s_4)) (<= 0 s_4))) (and (<= 0 ?v_47) (not (<= 2 ?v_47)))) (= (<= 1 s_4) (not (<= v5 2)))) (and (<= 0 o_2) (<= o_2 1))) (and (<= 0 ?v_49) (not (<= 4 ?v_49)))) (= (not (<= ?v_50 4)) (= o_2 1))) (and (not (<= 64 s_5)) (<= 0 s_5))) (and (<= s_5 v6) (not (<= 1 (- v6 s_5))))) (= (<= 1 s_5) (not (<= v6 1)))) (and (not (<= 128 s_6)) (<= 0 s_6))) (and (<= 0 ?v_51) (not (<= 1 ?v_51)))) (= (<= 1 s_6) (not (<= v7 0)))) (and (<= 0 o_3) (<= o_3 1))) (and (<= 0 ?v_53) (not (<= 1 ?v_53)))) (= (not (<= ?v_54 1)) (= o_3 1))) (and (<= 0 o_4) (<= o_4 1))) (and (<= 0 ?v_59) (not (<= 64 ?v_59)))) (= (not (<= (+ (+ ?v_60 A_itev8) A_itev10) 64)) (= o_4 1))) (and (<= 0 o_5) (<= o_5 1))) (and (<= 0 ?v_64) (not (<= 4 ?v_64)))) (= (not (<= ?v_65 4)) (= o_5 1))) (and (<= 0 o_6) (<= o_6 1))) (and (<= 0 ?v_67) (not (<= 64 ?v_67)))) (= (not (<= (+ (+ ?v_68 A_itev8) A_itev10) 64)) (= o_6 1))) (and (<= 0 o_7) (<= o_7 1))) (and (<= 0 ?v_12) ?v_69)) (= (not (<= (+ A_itev2 v6) 64)) (= o_7 1))) (and (<= 0 o_8) (<= o_8 1))) (and (<= 0 ?v_70) (not (<= 64 ?v_70)))) (= (not (<= (+ A_itev4 v5) 64)) (= o_8 1))) (and (not (<= 2 s_9)) (<= 0 s_9))) (and (<= 0 ?v_72) (not (<= 32 ?v_72)))) (= (<= 1 s_9) (not (<= ?v_70 32)))) (and (<= 0 o_9) (<= o_9 1))) (and (<= 0 ?v_73) (not (<= 64 ?v_73)))) (= (not (<= (+ ?v_74 ?v_75) 64)) (= o_9 1))) (and (not (<= 2 s_10)) (<= 0 s_10))) (and (<= 0 ?v_77) (not (<= 32 ?v_77)))) (= (<= 1 s_10) (not (<= ?v_73 32)))) (and (<= 0 o_10) (<= o_10 1))) (and (<= 0 ?v_78) (not (<= 64 ?v_78)))) (= (not (<= (+ ?v_79 ?v_80) 64)) (= o_10 1))) (and (not (<= 2 s_11)) (<= 0 s_11))) (and (<= 0 ?v_82) (not (<= 32 ?v_82)))) (= (<= 1 s_11) (not (<= ?v_78 32)))) (and (<= 0 o_11) (<= o_11 1))) (and (<= 0 ?v_83) (not (<= 64 ?v_83)))) (= (not (<= (+ ?v_84 ?v_85) 64)) (= o_11 1))) (and (not (<= 2 s_12)) (<= 0 s_12))) (and (<= 0 ?v_87) (not (<= 32 ?v_87)))) (= (<= 1 s_12) (not (<= ?v_83 32)))) (and (<= 0 o_12) (<= o_12 1))) (and (<= 0 ?v_88) (not (<= 64 ?v_88)))) (= (not (<= (+ ?v_89 ?v_90) 64)) (= o_12 1))) (and (not (<= 2 s_13)) (<= 0 s_13))) (and (<= 0 ?v_92) (not (<= 32 ?v_92)))) (= (<= 1 s_13) (not (<= ?v_88 32)))) (and (<= 0 o_13) (<= o_13 1))) (and (<= 0 ?v_95) (not (<= 64 ?v_95)))) (= (not (<= (+ ?v_96 ?v_97) 64)) (= o_13 1))) (not (= (+ (+ (+ (+ (+ (+ (+ (+ (+ (+ (+ (+ (+ (+ (+ (+ (+ (+ (+ (+ (+ (+ (+ (+ (+ (+ (+ (+ ?v_98 (* o_8 2048)) (* s_9 1024)) (* o_9 1024)) (* s_10 512)) (* o_10 512)) (* s_11 256)) (* v2 (- 4))) (* o_11 256)) (* s_12 128)) (* v1 (- 2))) (* o_12 128)) (* s_13 64)) (* o_13 64)) ?v_99) ?v_100) ?v_101) ?v_102) ?v_103) ?v_104) ?v_105) ?v_56) ?v_57) ?v_58) ?v_66) ?v_106) (* A_itev4 (- 32))) A_itev8) A_itev10) 0))))))))))))))))))))))))))))))))))))))
(check-sat)
(exit)
